
Gurobi 12.0.1 (win64, C++) logging started Thu Apr 17 16:51:26 2025

Set parameter Username
Set parameter LicenseID to value 2618655
Academic license - for non-commercial use only - expires 2026-02-05
Set parameter Threads to value 8
Set parameter LazyConstraints to value 1
Set parameter PreCrush to value 1
Set parameter Seed to value 0
Set parameter Cuts to value -1
Set parameter TimeLimit to value 28800
Set parameter NumericFocus to value 0
Set parameter SolutionLimit to value 10000
Gurobi Optimizer version 12.0.1 build v12.0.1rc0 (win64 - Windows Server 2022.0 (20348.2))

CPU model: AMD EPYC 7513 32-Core Processor, instruction set [SSE2|AVX|AVX2]
Thread count: 18 physical cores, 18 logical processors, using up to 8 threads

Non-default parameters:
SolutionLimit  10000
TimeLimit  28800
PreCrush  1
Threads  8
LazyConstraints  1

Optimize a model with 362 rows, 676 columns and 1970 nonzeros
Model fingerprint: 0xc463c6a6
Variable types: 0 continuous, 676 integer (676 binary)
Coefficient statistics:
  Matrix range     [1e+00, 1e+00]
  Objective range  [5e+00, 9e+01]
  Bounds range     [1e+00, 1e+00]
  RHS range        [1e+00, 8e+00]

User MIP start produced solution with objective 810.385 (0.00s)
Loaded user MIP start with objective 810.385

Presolve removed 46 rows and 104 columns
Presolve time: 0.01s
Presolved: 316 rows, 572 columns, 1659 nonzeros
Variable types: 0 continuous, 572 integer (572 binary)

Root relaxation: objective 4.668467e+02, 93 iterations, 0.00 seconds (0.00 work units)

    Nodes    |    Current Node    |     Objective Bounds      |     Work
 Expl Unexpl |  Obj  Depth IntInf | Incumbent    BestBd   Gap | It/Node Time

     0     0  466.84671    0    -  810.38451  466.84671  42.4%     -    0s
     0     0  492.83241    0   14  810.38451  492.83241  39.2%     -    0s
     0     0  497.87766    0    -  810.38451  497.87766  38.6%     -    0s
     0     0  538.60298    0    8  810.38451  538.60298  33.5%     -    0s
     0     0  556.18004    0   21  810.38451  556.18004  31.4%     -    0s
     0     0  575.39540    0   41  810.38451  575.39540  29.0%     -    0s
     0     0  577.01241    0   49  810.38451  577.01241  28.8%     -    0s
     0     0  577.01241    0   26  810.38451  577.01241  28.8%     -    0s
     0     2  581.79599    0   39  810.38451  581.79599  28.2%     -    0s
H   45    48                     714.8213156  599.20600  16.2%   110    3s
    66    80  607.67682   10   83  714.82132  599.20600  16.2%  96.2    5s
   160   176  618.87042   18   83  714.82132  599.20600  16.2%  76.9   10s
   963   996  623.58624  111   74  714.82132  599.20600  16.2%  31.2   15s
H 1667  1638                     691.0825855  600.95734  13.0%  25.3   15s
  1880  1750  660.03614  143  469  691.08259  606.82424  12.2%  26.4   20s
  1889  1756  622.74914   59  494  691.08259  610.18978  11.7%  26.3   25s
H 2206  1964                     677.5845585  610.19810  9.95%  36.7   27s
* 2558  1916              29     630.1275730  611.04792  3.03%  42.1   29s
  2894  1783     cutoff   28       630.12757  613.14697  2.69%  43.9   30s
  5402  1194     cutoff   27       630.12757  621.37669  1.39%  51.7   35s

Cutting planes:
  Gomory: 7
  Clique: 2
  Flow cover: 2
  GUB cover: 1
  Inf proof: 3
  Zero half: 11
  Relax-and-lift: 2
  Lazy constraints: 307

Explored 7756 nodes (411781 simplex iterations) in 38.61 seconds (37.64 work units)
Thread count was 8 (of 18 available processors)

Solution count 5: 630.128 677.585 691.083 ... 810.385

Optimal solution found (tolerance 1.00e-04)
Best objective 6.301275729831e+02, best bound 6.301275729831e+02, gap 0.0000%

User-callback calls 17158, time in user-callback 14.31 sec
### START EXACT APPROACH ###
ProblemVariant: 4
### START PREPROCESSING ###
## Start infeasible path procedure ## 
Deleted arcs: 78
Infeasible tail paths: 10
Infeasible 2-node combinations: 39
## Start extended infeasible path procedure ##
Deleted arcs: 78
Infeasible tail paths: 10
Infeasible 2-node combinations: 39
## Start start solution procedure ##
Start solution with 8 Vehicles and total costs 810.385 in 3.24738 s.
### END PREPROCESSING ###
Route 0 0-2-4-25-10-0 : weight util 0.979167 | volume util 0.547733 | feasible with packing heuristic | feasible with CP model
Route 1 0-3-0 : weight util 0.854167 | volume util 0.046200 | feasible with packing heuristic | feasible with CP model
Route 2 0-9-8-11-12-0 : weight util 1.000000 | volume util 0.538333 | feasible with packing heuristic | feasible with CP model
Route 3 0-15-19-0 : weight util 0.937500 | volume util 0.334400 | feasible with packing heuristic | feasible with CP model
Route 4 0-16-13-7-1-0 : weight util 1.000000 | volume util 0.578311 | feasible with packing heuristic | feasible with CP model
Route 5 0-17-5-14-0 : weight util 0.958333 | volume util 0.606222 | feasible with packing heuristic | feasible with CP model
Route 6 0-21-20-6-23-0 : weight util 0.958333 | volume util 0.536889 | feasible with packing heuristic | feasible with CP model
Route 7 0-22-18-24-0 : weight util 0.958333 | volume util 0.426689 | feasible with packing heuristic | feasible with CP model
